% number of games is 110
num = 110;
cap = 5;
refill = 2;
fun = [-10, -15, -10, -9, 6, 17, -16, 14, -11, 15, 14, 15, 16, 16, -2, 20, -12, -11, -8, 14, 0, 9, 12, -2, -3, 1, 15, 5, 7, 20, -4, 7, -2, -13, 20, 10, 2, -5, 9, 12, -20, 18, 15, -3, 5, -18, -16, 3, -2, -10, -15, 20, -6, -5, -8, -8, 16, -11, -16, 13, 20, 8, 3, -8, 4, 8, 4, -14, 13, -12, 8, 2, 6, 13, 5, -20, -2, -6, -14, -7, -2, 14, 17, -18, 3, -14, -2, 11, -20, 16, 16, -18, 3, 7, -9, 13, -9, -3, -14, 13, -20, -11, 6, -5, -19, 9, 18, 9, 2, 1];
